p cnf 10 25
2 2 -4 7 0
-7 2 2 8 -2 -6 -2 0
2 0
5 1 -3 3 0
6 -9 -4 9 5 9 2 1 -5 0
-9 -1 -1 -5 4 0
2 -8 0
10 -2 10 6 9 8 -5 0
8 -5 1 -1 -8 4 -9 0
-4 0
-2 -9 -4 0
-5 -2 -4 -5 2 1 10 3 0
7 0
5 4 0
-10 5 -4 -4 -8 0
-5 -3 10 6 0
-6 -8 -4 6 -4 2 -9 -5 4 0
1 0
-9 -3 10 -2 6 0
-6 -1 0
7 -10 4 -6 9 -8 9 3 0
3 5 -6 1 -6 -8 3 4 -8 0
-5 0
-4 -2 -9 4 -1 8 9 0
1 0